set VV := 0 1 2 3 4 5 6 7 8 9 10 11 12 13 14 15 16 17 ;
set VS := 0 1 2 3 4 5 6 7 8 9 10 11 12 13 14 15 16 17 18 19 20 21 22 23 24 25 26 27 28 29 30 31 32 33 34 35 36 37 38 39 40 ;
param cv := 
0 19
1 16
2 18
3 11
4 16
5 21
6 14
7 24
8 22
9 18
10 24
11 25
12 19
13 10
14 20
15 20
16 15
17 25
;
param cs := 
0 39
1 32
2 32
3 20
4 35
5 33
6 34
7 40
8 29
9 21
10 39
11 31
12 38
13 28
14 35
15 34
16 40
17 21
18 39
19 25
20 37
21 31
22 34
23 34
24 40
25 30
26 25
27 38
28 37
29 23
30 26
31 25
32 35
33 33
34 22
35 23
36 32
37 29
38 26
39 21
40 37
;
param bv:	 0 1 2 3 4 5 6 7 8 9 10 11 12 13 14 15 16 17 := 
		0 0 0 0 0 0 19 0 0 0 0 0 0 0 0 0 0 20 0 
		1 0 0 0 0 0 0 10 0 0 0 0 11 21 0 0 0 0 20 
		2 0 0 0 0 20 0 0 0 0 0 0 0 0 0 0 0 0 0 
		3 0 0 0 0 14 0 0 0 0 0 0 0 15 0 0 0 0 0 
		4 0 0 0 0 0 0 0 0 0 0 0 0 0 21 0 18 0 0 
		5 0 0 0 0 0 0 0 18 0 0 25 0 0 16 0 0 0 0 
		6 0 0 0 0 0 0 0 11 0 0 12 0 0 0 0 0 0 0 
		7 0 0 0 0 0 0 0 0 0 0 0 0 0 0 0 0 0 0 
		8 0 0 0 0 0 0 0 0 0 0 0 13 0 0 21 19 0 0 
		9 0 0 0 0 0 0 0 0 0 0 11 0 0 0 0 0 0 0 
		10 0 0 0 0 0 0 0 0 0 0 0 0 0 0 21 0 0 0 
		11 0 0 0 0 0 0 0 0 0 0 0 0 0 24 0 0 0 0 
		12 0 0 0 0 0 0 0 0 0 0 0 0 0 0 0 18 0 0 
		13 0 0 0 0 0 0 0 0 0 0 0 0 0 0 0 0 0 0 
		14 0 0 0 0 0 0 0 0 0 0 0 0 0 0 0 0 0 0 
		15 0 0 0 0 0 0 0 0 0 0 0 0 0 0 0 0 0 0 
		16 0 0 0 0 0 0 0 0 0 0 0 0 0 0 0 0 0 0 
		17 0 0 0 0 0 0 0 0 0 0 0 0 0 0 0 0 0 0 
;
param bs:	 0 1 2 3 4 5 6 7 8 9 10 11 12 13 14 15 16 17 18 19 20 21 22 23 24 25 26 27 28 29 30 31 32 33 34 35 36 37 38 39 40 := 
		0 0 0 0 0 0 0 0 0 0 0 0 0 0 0 0 0 0 0 30 0 0 0 0 0 0 0 0 0 40 0 0 0 24 0 0 0 0 0 0 0 0 
		1 0 0 34 40 0 0 0 0 22 0 0 0 0 0 0 0 26 0 38 0 32 0 22 0 0 33 0 0 0 0 0 0 0 0 36 40 0 0 0 0 0 
		2 0 34 0 0 0 0 0 40 0 0 0 0 0 0 0 0 0 0 0 0 0 0 0 0 0 0 0 0 0 0 0 0 0 0 0 0 0 0 0 0 0 
		3 0 40 0 0 0 0 0 0 0 0 0 0 0 0 32 0 0 36 0 0 0 0 0 0 0 34 0 0 0 0 0 0 0 0 28 35 0 0 0 0 0 
		4 0 0 0 0 0 0 0 0 0 0 0 0 0 0 0 0 0 0 0 0 0 0 0 0 0 0 0 0 0 0 0 0 0 0 30 34 0 0 38 0 0 
		5 0 0 0 0 0 0 0 0 0 0 0 0 0 0 20 0 0 0 0 0 0 0 0 0 0 0 0 28 0 0 0 0 0 0 0 0 0 0 0 0 0 
		6 0 0 0 0 0 0 0 35 0 35 0 0 0 0 0 21 28 34 0 0 33 0 0 0 0 0 0 0 0 0 0 0 0 0 0 0 0 0 0 0 0 
		7 0 0 40 0 0 0 35 0 0 0 0 0 0 0 0 0 0 0 0 0 0 0 0 0 0 0 0 0 0 0 0 0 0 0 0 0 0 0 0 0 0 
		8 0 22 0 0 0 0 0 0 0 0 0 0 0 0 0 0 0 0 32 0 0 35 0 0 23 0 0 0 25 0 0 0 0 0 23 0 0 0 0 0 0 
		9 0 0 0 0 0 0 35 0 0 0 0 0 0 0 0 0 0 0 0 0 0 0 0 0 0 0 35 0 0 0 0 0 0 0 0 0 0 20 0 0 0 
		10 0 0 0 0 0 0 0 0 0 0 0 0 0 0 0 0 0 0 0 0 0 0 0 0 0 28 0 0 0 0 29 0 0 0 0 0 0 0 0 0 0 
		11 0 0 0 0 0 0 0 0 0 0 0 0 0 0 0 0 0 0 0 0 0 0 0 0 33 0 28 0 0 0 0 0 0 0 0 0 0 0 0 0 29 
		12 0 0 0 0 0 0 0 0 0 0 0 0 0 0 0 0 0 0 0 0 28 0 0 0 0 0 0 0 0 0 0 0 0 34 40 29 0 0 0 0 0 
		13 0 0 0 0 0 0 0 0 0 0 0 0 0 0 0 38 0 0 0 0 0 0 0 0 0 0 0 0 0 0 0 0 0 0 0 0 0 0 0 0 27 
		14 0 0 0 32 0 20 0 0 0 0 0 0 0 0 0 0 0 0 0 0 0 0 0 0 0 0 0 37 0 20 0 0 0 0 0 0 0 0 22 0 0 
		15 0 0 0 0 0 0 21 0 0 0 0 0 0 38 0 0 0 0 25 0 21 0 0 0 0 0 40 0 26 0 0 0 32 0 0 0 0 26 20 0 0 
		16 0 26 0 0 0 0 28 0 0 0 0 0 0 0 0 0 0 0 0 0 0 0 0 0 0 34 0 0 0 0 33 0 26 0 38 0 0 0 0 0 0 
		17 0 0 0 36 0 0 34 0 0 0 0 0 0 0 0 0 0 0 0 0 0 0 0 0 0 0 0 0 0 0 0 0 0 0 36 31 0 0 0 0 0 
		18 30 38 0 0 0 0 0 0 32 0 0 0 0 0 0 25 0 0 0 0 0 0 0 0 0 0 36 0 0 0 0 0 0 0 0 0 0 0 0 0 0 
		19 0 0 0 0 0 0 0 0 0 0 0 0 0 0 0 0 0 0 0 0 26 0 0 0 0 0 0 0 0 0 0 0 0 0 0 0 0 0 0 0 0 
		20 0 32 0 0 0 0 33 0 0 0 0 0 28 0 0 21 0 0 0 26 0 0 0 0 0 0 0 0 37 34 21 0 0 25 0 0 0 0 0 0 0 
		21 0 0 0 0 0 0 0 0 35 0 0 0 0 0 0 0 0 0 0 0 0 0 31 25 0 0 0 0 0 0 0 0 0 0 0 0 0 0 0 0 28 
		22 0 22 0 0 0 0 0 0 0 0 0 0 0 0 0 0 0 0 0 0 0 31 0 0 0 0 0 0 0 27 0 0 0 34 0 0 0 0 34 0 0 
		23 0 0 0 0 0 0 0 0 0 0 0 0 0 0 0 0 0 0 0 0 0 25 0 0 0 0 0 0 0 0 0 0 0 0 0 0 0 0 0 0 0 
		24 0 0 0 0 0 0 0 0 23 0 0 33 0 0 0 0 0 0 0 0 0 0 0 0 0 0 0 0 0 0 0 0 0 0 26 0 0 0 0 0 0 
		25 0 33 0 34 0 0 0 0 0 0 28 0 0 0 0 0 34 0 0 0 0 0 0 0 0 0 0 0 0 0 21 0 0 0 0 0 0 0 0 0 0 
		26 0 0 0 0 0 0 0 0 0 35 0 28 0 0 0 40 0 0 36 0 0 0 0 0 0 0 0 0 0 0 0 0 0 23 0 0 0 0 30 0 0 
		27 0 0 0 0 0 28 0 0 0 0 0 0 0 0 37 0 0 0 0 0 0 0 0 0 0 0 0 0 0 0 0 31 0 0 0 0 0 40 0 0 0 
		28 40 0 0 0 0 0 0 0 25 0 0 0 0 0 0 26 0 0 0 0 37 0 0 0 0 0 0 0 0 33 0 0 23 0 0 0 0 0 0 0 29 
		29 0 0 0 0 0 0 0 0 0 0 0 0 0 0 20 0 0 0 0 0 34 0 27 0 0 0 0 0 33 0 0 0 0 0 0 0 0 0 0 0 0 
		30 0 0 0 0 0 0 0 0 0 0 29 0 0 0 0 0 33 0 0 0 21 0 0 0 0 21 0 0 0 0 0 0 0 0 0 0 0 0 0 0 0 
		31 0 0 0 0 0 0 0 0 0 0 0 0 0 0 0 0 0 0 0 0 0 0 0 0 0 0 0 31 0 0 0 0 0 0 0 0 0 0 0 0 0 
		32 24 0 0 0 0 0 0 0 0 0 0 0 0 0 0 32 26 0 0 0 0 0 0 0 0 0 0 0 23 0 0 0 0 0 0 0 0 0 0 0 0 
		33 0 0 0 0 0 0 0 0 0 0 0 0 34 0 0 0 0 0 0 0 25 0 34 0 0 0 23 0 0 0 0 0 0 0 0 0 0 0 21 0 0 
		34 0 36 0 28 30 0 0 0 23 0 0 0 40 0 0 0 38 36 0 0 0 0 0 0 26 0 0 0 0 0 0 0 0 0 0 0 0 0 0 22 0 
		35 0 40 0 35 34 0 0 0 0 0 0 0 29 0 0 0 0 31 0 0 0 0 0 0 0 0 0 0 0 0 0 0 0 0 0 0 0 0 0 0 0 
		36 0 0 0 0 0 0 0 0 0 0 0 0 0 0 0 0 0 0 0 0 0 0 0 0 0 0 0 0 0 0 0 0 0 0 0 0 0 35 0 0 0 
		37 0 0 0 0 0 0 0 0 0 20 0 0 0 0 0 26 0 0 0 0 0 0 0 0 0 0 0 40 0 0 0 0 0 0 0 0 35 0 0 0 29 
		38 0 0 0 0 38 0 0 0 0 0 0 0 0 0 22 20 0 0 0 0 0 0 34 0 0 0 30 0 0 0 0 0 0 21 0 0 0 0 0 0 0 
		39 0 0 0 0 0 0 0 0 0 0 0 0 0 0 0 0 0 0 0 0 0 0 0 0 0 0 0 0 0 0 0 0 0 0 22 0 0 0 0 0 0 
		40 0 0 0 0 0 0 0 0 0 0 0 29 0 27 0 0 0 0 0 0 0 28 0 0 0 0 0 0 29 0 0 0 0 0 0 0 0 29 0 0 0 
;
